# Objective value = 1.4142135623730949e+00
x[0,0] 1
x[0,4] 0
x[1,1] 1
x[2,2] 1
x[3,3] 1
x[3,8] 0
x[4,0] 0
x[4,4] 1
x[4,10] 0
x[5,5] 1
x[6,6] 1
x[7,7] 1
x[8,3] 0
x[8,8] 1
x[9,9] 1
x[10,4] 1
x[10,10] 0
x[11,11] 1
x[12,12] 1
x[13,13] 1
x[14,14] 1
x[15,15] 1
x[16,16] 1
x[17,17] 1
x[18,18] 1
x[19,19] 1
x[20,20] 1
x[21,21] 1
x[22,22] 1
x[23,23] 1
x[24,24] 1
x[25,25] 1
x[26,26] 1
x[27,27] 1
x[28,28] 1
x[29,29] 1
x[30,30] 1
x[31,31] 1
x[32,32] 1
x[33,33] 1
x[34,34] 1
x[35,35] 1
x[36,36] 1
x[37,37] 1
x[38,38] 1
x[39,39] 1
x[40,40] 1
x[41,41] 1
x[42,42] 1
x[43,43] 1
x[44,44] 1
x[45,45] 1
x[46,46] 1
x[47,47] 1
x[48,48] 1
x[49,49] 1
x[50,50] 1
x[51,51] 1
x[52,52] 1
x[53,53] 1
x[54,54] 1
Y[0] 1
Y[1] 1
Y[2] 1
Y[3] 1
Y[4] 1
Y[5] 1
Y[6] 1
Y[7] 1
Y[8] 1
Y[9] 1
Y[10] 0
Y[11] 1
Y[12] 1
Y[13] 1
Y[14] 1
Y[15] 1
Y[16] 1
Y[17] 1
Y[18] 1
Y[19] 1
Y[20] 1
Y[21] 1
Y[22] 1
Y[23] 1
Y[24] 1
Y[25] 1
Y[26] 1
Y[27] 1
Y[28] 1
Y[29] 1
Y[30] 1
Y[31] 1
Y[32] 1
Y[33] 1
Y[34] 1
Y[35] 1
Y[36] 1
Y[37] 1
Y[38] 1
Y[39] 1
Y[40] 1
Y[41] 1
Y[42] 1
Y[43] 1
Y[44] 1
Y[45] 1
Y[46] 1
Y[47] 1
Y[48] 1
Y[49] 1
Y[50] 1
Y[51] 1
Y[52] 1
Y[53] 1
Y[54] 1
Z 1.4142135623730949e+00
